\ENCODING=ISO-8859-1
\Problem name: neos-3611447-jijia.mps

Maximize
 R0378: 0 C0001            + 0 C0002            + 0 C0003            + 0 C0004            + 0 C0005            + 0 C0006            + 0 C0007            + 0 C0008            + 0 C0009            + 0 C0010            + 0 C0011            + 0 C0012            + 0 C0013            + 0 C0014            + 0 C0015            + 0 C0016            + 0 C0017            + 0 C0018            + 0 C0019            + 0 C0020            + 0 C0021            + 0 C0022            + 0 C0023            + 0 C0024            + 0 C0025            + 0 C0026            + 0 C0027            + 0 C0028            + 0 C0029            + 0 C0030            + 0 C0031            + 0 C0032            + 0 C0033            + 0 C0034            + 0 C0035            + 0 C0036            + 0 C0037            + 0 C0038            + 0 C0039            + 0 C0040            + 0 C0041            + 0 C0042            + 0 C0043            + 0 C0044            + 0 C0045            + 0 C0046            + 0 C0047            + 0 C0048            + 0 C0049            + 0 C0050            + 0 C0051            + 0 C0052            + 0 C0053            + 0 C0054            + 0 C0055            + 0 C0056            + 0 C0057            + 0 C0058            + 0 C0059            + 0 C0060            + 0 C0061            + 0 C0062            + 0 C0063            + 0 C0064            + 0 C0065            + 0 C0066            + 0 C0067            + 0 C0068            + 0 C0069            + 0 C0070            + 0 C0071            + 0 C0072            + 0 C0073            + 0 C0074            + 0 C0075            + 0 C0076            + 0 C0077            + 0 C0078            + 0 C0079            + 0 C0080            + 0 C0081            + 0 C0082            + 0 C0083            + 0 C0084            + 0 C0085            + 0 C0086            + 0 C0087            + 0 C0088            + 0 C0089            + 0 C0090            + 0 C0091            + 0 C0092            + 0 C0093            + 0 C0094            + 0 C0095            + 0 C0096            + 0 C0097            + 0 C0098            + 0 C0099            + 0 C0100            + 0 C0101            + 0 C0102            + 0 C0103            + 0 C0104            + 0 C0105            + 0 C0106            + 0 C0107            + 0 C0108            + 0 C0109            + 0 C0110            + 0 C0111            + 0 C0112            + 0 C0113            + 0 C0114            + 0 C0115            + 0 C0116            + 0 C0117            + 0 C0118            + 0 C0119            + 0 C0120            + 0 C0121            + 0 C0122            + 0 C0123            + 0 C0124            + 0 C0125            + 0 C0126            + 0 C0127            + 0 C0128            + 0 C0129            + 0 C0130            + 0 C0131            + 0 C0132            + 0 C0133            + 0 C0134            + 0 C0135            + 0 C0136            + 0 C0137            + 0 C0138            + 0 C0139            + 0 C0140            + 0 C0141            + 0 C0142            + 0 C0143            + 0 C0144            + 0 C0145            + 0 C0146            + 0 C0147            + 0 C0148            + 0 C0149            + 0 C0150            + 0 C0151            + 0 C0152            + 0 C0153            + 0 C0154            + 0 C0155            + 0 C0156            + 0 C0157            + 0 C0158            + 0 C0159            + 0 C0160            + 0 C0161            + 0 C0162            + 0 C0163            + 0 C0164            + 0 C0165            + 0 C0166            + 0 C0167            + 0 C0168            + 0 C0169            + 0 C0170            + 0 C0171            + 0 C0172            + 0 C0173            + 0 C0174            + 0 C0175            + 0 C0176            + 0 C0177            + 0 C0178            + 0 C0179            + 0 C0180            + 0 C0181            + 0 C0182            + 0 C0183            + 0 C0184            + 0 C0185            + 0 C0186            + 0 C0187            + 0 C0188            + 0 C0189            + 0 C0190            + 0 C0191            + 0 C0192            + 0 C0193            + 0 C0194            + 0 C0195            + 0 C0196            + 0 C0197            + 0 C0198            + 0 C0199            + 0 C0200            + 0 C0201            + 0 C0202            + 0 C0203            + 0 C0204            + 0 C0205            + 0 C0206            + 0 C0207            + 0 C0208            + 0 C0209            + 0 C0210            + 0 C0211            + 0 C0212            + 0 C0213            + 0 C0214            + 0 C0215            + 0 C0216            + 0 C0217            + 0 C0218            + 0 C0219            + 0 C0220            + 0 C0221            + 0 C0222            + 0 C0223            + 0 C0224            + 0 C0225            + 0 C0226            + 0 C0227            + 0 C0228            + 0 C0229            + 0 C0230            + 0 C0231            + 0 C0232            + 0 C0233            + 0 C0234            + 0 C0235            + 0 C0236            + 0 C0237            + 0 C0238            + 0 C0239            + 0 C0240            + 0 C0241            + 0 C0242            + 0 C0243            + 0 C0244            + 0 C0245            + 0 C0246            + 0 C0247            + 0 C0248            + 0 C0249            + 0 C0250            + 0 C0251            + 0 C0252            + 0 C0253            + 0 C0254            + 0 C0255            + 0 C0256            + 0 C0257            + 0 C0258            + 0 C0259            + 0 C0260            + 0 C0261            + 0 C0262            + 0 C0263            + 0 C0264            + 0 C0265            + 0 C0266            + 0 C0267            + 0 C0268            + 0 C0269            + 0 C0270            + 0 C0271            + 0 C0272            + 0 C0273            + 0 C0274            + 0 C0275            + 0 C0276            + 0 C0277            + 0 C0278            + 0 C0279            + 0 C0280            + 0 C0281            + 0 C0282            + 0 C0283            + 0 C0284            + 0 C0285            + 0 C0286            + 0 C0287            + 0 C0288            + 0 C0289            + 0 C0290            + 0 C0291            + 0 C0292            + 0 C0293            + 0 C0294            + 0 C0295            + 0 C0296            + 0 C0297            + 0 C0298            + 0 C0299            + 0 C0300            + 0 C0301            + 0 C0302            + 0 C0303            + 0 C0304            + 0 C0305            + 0 C0306            + 0 C0307            + 0 C0308            + 0 C0309            + 0 C0310            + 0 C0311            + 0 C0312            + 0 C0313            + 0 C0314            + 0 C0315            + 0 C0316            + 0 C0317            + 0 C0318            + 0 C0319            + 0 C0320            + 0 C0321            + 0 C0322            + 0 C0323            + 0 C0324            + 0 C0325            + 0 C0326            + 0 C0327            + 0 C0328            + 0 C0329            + 0 C0330            + 0 C0331            + 0 C0332            + 0 C0333            + 0 C0334            + 0 C0335            + 0 C0336            + 0 C0337            + 0 C0338            + 0 C0339            + 0 C0340            + 0 C0341            + 0 C0342            + 0 C0343            + 0 C0344            + 0 C0345            + 0 C0346            + 0 C0347            + 0 C0348            + 0 C0349            + 0 C0350            + 0 C0351            + 0 C0352            + 0 C0353            + 0 C0354            + 0 C0355            + 0 C0356            + 0 C0357            + 0 C0358            + 0 C0359            + 0 C0360            + 0 C0361            + 0 C0362            + 0 C0363            + 0 C0364            + 0 C0365            + 0 C0366            + 0 C0367            + 0 C0368            + 0 C0369            + 0 C0370            + 0 C0371            + 0 C0372            + 0 C0373            + 0 C0374            + 0 C0375            + 0 C0376            + 0 C0377            + 0 C0378            + 0 C0379            + 0 C0380            + 0 C0381            + 0 C0382            + 0 C0383            + 0 C0384            + 0 C0385            + 0 C0386            + 1 C0387            + 0 C0388            + 0 C0389            + 0 C0390            + 0 C0391            + 0 C0392            + 0 C0393            + 0 C0394            + 0 C0395            + 0 C0396            + 0 C0397            + 0 C0398            + 0 C0399            + 0 C0400            + 0 C0401            + 0 C0402            + 0 C0403            + 0 C0404            + 0 C0405            + 0 C0406            + 0 C0407            + 0 C0408            + 0 C0409            + 0 C0410            + 0 C0411            + 0 C0412            + 0 C0413            + 0 C0414            + 0 C0415            + 0 C0416            + 0 C0417            + 0 C0418            + 0 C0419            + 0 C0420            + 0 C0421            + 0 C0422            + 0 C0423            + 0 C0424            + 0 C0425            + 0 C0426            + 0 C0427            + 0 C0428            + 0 C0429            + 0 C0430            + 0 C0431            + 0 C0432            + 0 C0433            + 0 C0434            + 0 C0435            + 0 C0436            + 0 C0437            + 0 C0438            + 0 C0439            + 0 C0440            + 0 C0441            + 0 C0442            + 0 C0443            + 0 C0444            + 0 C0445            + 0 C0446            + 0 C0447            + 0 C0448            + 0 C0449            + 0 C0450            + 0 C0451            + 0 C0452            + 0 C0453            + 0 C0454            + 0 C0455            + 0 C0456            + 0 C0457            + 0 C0458            + 0 C0459            + 0 C0460            + 0 C0461            + 0 C0462            + 0 C0463            + 0 C0464            + 0 C0465            + 0 C0466            + 0 C0467            + 0 C0468            + 0 C0469            + 0 C0470            + 0 C0471            + 0 C0472
Subject To
 R0001: C0387 - 5 C0388 - 4 C0389 - 5 C0390 - 3 C0391 - C0392 - 4 C0393
        - 2 C0394 - C0395 - 3 C0396 - 2 C0397 - 5 C0398 - 3 C0399 - 5 C0400
        - C0401 - 2 C0402 - 3 C0403 - 5 C0404 - 3 C0405 - 5 C0406 - 3 C0407
        - 4 C0408 - 3 C0409 - C0410 - C0411 - 2 C0412 - 4 C0413 - 5 C0414
        - 2 C0415 - 4 C0416 - C0417 - 5 C0418 - 5 C0419 - 4 C0420 - 5 C0421
        - C0422 - 5 C0423 - 5 C0424 - 3 C0425 - 4 C0426 - C0427 - 2 C0428
        - 5 C0429 - C0430 - 5 C0431 - C0432 - C0433 - 3 C0434 - 3 C0435 - C0436
        - C0437 - 5 C0438 - 3 C0439 - 5 C0440 - 4 C0441 - 3 C0442 - 5 C0443
        - 4 C0444 - 4 C0445 - C0446 - 5 C0447 - 2 C0448 - 4 C0449 - 2 C0450
        - 5 C0451 - 5 C0452 - 2 C0453 - 5 C0454 - 2 C0455 - 4 C0456 - 4 C0457
        - 2 C0458 - C0459 - 4 C0460 - 3 C0461 - C0462 - 5 C0463 - 4 C0464
        - 2 C0465 - 2 C0466 - 5 C0467 - 2 C0468 - 3 C0469 - 4 C0470 - 2 C0471
        - C0472  = 42
 R0002: - C0001 + C0002 <= 1.61
 R0003: - C0002 + C0003 <= 1.13
 R0004: - C0003 + C0004 - 4 C0431 <= -2.51
 R0005: - C0004 + C0005 - 4 C0447 <= -1.84
 R0006: - C0005 + C0006 - 4 C0421 <= -1.32
 R0007: - C0006 + C0007 - 4 C0433 <= -2.5
 R0008: - C0007 + C0008 - 4 C0410 <= -2.44
 R0009: - C0008 + C0009 - 4 C0430 <= -1.38
 R0010: - C0009 + C0010 - 4 C0440 <= -2.83
 R0011: - C0010 + C0011 - 4 C0432 <= -2.08
 R0012: - C0011 + C0012 - 4 C0442 <= -2.08
 R0013: - C0012 + C0013 - 4 C0471 <= -2.13
 R0014: - C0013 + C0014 - 4 C0448 <= -2.04
 R0015: - C0014 + C0015 - 4 C0451 <= -1.89
 R0016: - C0015 + C0016 - 4 C0454 <= -2.37
 R0017: - C0016 + C0017 - 4 C0406 <= -1.38
 R0018: - C0018 + C0019 - 4 C0459 <= -2.4
 R0019: - C0019 + C0020 - 4 C0433 <= -1.68
 R0020: - C0020 + C0021 - 4 C0395 <= -1.41
 R0021: - C0021 + C0022 - 4 C0421 <= -2.48
 R0022: - C0022 + C0023 - 4 C0423 <= -1.85
 R0023: - C0023 + C0024 - 4 C0388 <= -1.19
 R0024: - C0024 + C0025 - 4 C0472 <= -2.38
 R0025: - C0025 + C0026 - 4 C0431 <= -1.03
 R0026: - C0026 + C0027 - 4 C0452 <= -2.16
 R0027: - C0027 + C0028 - 4 C0444 <= -2.95
 R0028: - C0028 + C0029 - 4 C0462 <= -2.99
 R0029: - C0029 + C0030 - 4 C0436 <= -1.95
 R0030: - C0030 + C0031 <= 1.82
 R0031: - C0031 + C0032 - 4 C0432 <= -1.11
 R0032: - C0032 + C0033 <= 1.58
 R0033: - C0033 + C0034 - 4 C0439 <= -2.85
 R0034: - C0034 + C0035 <= 2.53
 R0035: - C0035 + C0036 - 4 C0418 <= -2.41
 R0036: - C0036 + C0037 <= 1.44
 R0037: - C0037 + C0038 - 4 C0435 <= -2.76
 R0038: - C0039 + C0040 <= 1.67
 R0039: - C0040 + C0041 - 4 C0395 <= -1.27
 R0040: - C0041 + C0042 - 4 C0434 <= -1.79
 R0041: - C0042 + C0043 - 4 C0446 <= -1.64
 R0042: - C0043 + C0044 - 4 C0413 <= -1.46
 R0043: - C0044 + C0045 - 4 C0449 <= -2.37
 R0044: - C0045 + C0046 - 4 C0461 <= -2.49
 R0045: - C0046 + C0047 - 4 C0411 <= -1.01
 R0046: - C0047 + C0048 - 4 C0454 <= -1.79
 R0047: - C0048 + C0049 - 4 C0427 <= -2.75
 R0048: - C0049 + C0050 - 4 C0389 <= -2.48
 R0049: - C0050 + C0051 - 4 C0444 <= -2.21
 R0050: - C0051 + C0052 - 4 C0388 <= -2.44
 R0051: - C0052 + C0053 - 4 C0470 <= -2.96
 R0052: - C0053 + C0054 - 4 C0458 <= -2.31
 R0053: - C0054 + C0055 - 4 C0420 <= -1.51
 R0054: - C0056 + C0057 - 4 C0411 <= -1.26
 R0055: - C0057 + C0058 <= 2.82
 R0056: - C0058 + C0059 - 4 C0397 <= -2.27
 R0057: - C0059 + C0060 <= 2.89
 R0058: - C0060 + C0061 - 4 C0398 <= -2.56
 R0059: - C0061 + C0062 <= 1.49
 R0060: - C0062 + C0063 - 4 C0456 <= -2.77
 R0061: - C0063 + C0064 - 4 C0414 <= -1.6
 R0062: - C0064 + C0065 - 4 C0392 <= -2.42
 R0063: - C0065 + C0066 - 4 C0419 <= -1.95
 R0064: - C0066 + C0067 - 4 C0403 <= -2.18
 R0065: - C0067 + C0068 - 4 C0405 <= -2.58
 R0066: - C0068 + C0069 <= 1.35
 R0067: - C0069 + C0070 - 4 C0422 <= -2.67
 R0068: - C0070 + C0071 - 4 C0418 <= -2.96
 R0069: - C0071 + C0072 - 4 C0461 <= -1.15
 R0070: - C0072 + C0073 - 4 C0430 <= -1.08
 R0071: - C0073 + C0074 <= 1.87
 R0072: - C0074 + C0075 - 4 C0428 <= -2.27
 R0073: - C0075 + C0076 - 4 C0466 <= -1.31
 R0074: - C0076 + C0077 - 4 C0464 <= -2.75
 R0075: - C0078 + C0079 <= 2.36
 R0076: - C0079 + C0080 - 4 C0460 <= -2.37
 R0077: - C0080 + C0081 - 4 C0401 <= -1.02
 R0078: - C0081 + C0082 - 4 C0457 <= -1.43
 R0079: - C0082 + C0083 - 4 C0400 <= -2.07
 R0080: - C0083 + C0084 - 4 C0388 <= -2.12
 R0081: - C0084 + C0085 - 4 C0414 <= -2.56
 R0082: - C0085 + C0086 <= 2.13
 R0083: - C0086 + C0087 - 4 C0415 <= -2.32
 R0084: - C0087 + C0088 - 4 C0397 <= -1.74
 R0085: - C0088 + C0089 - 4 C0398 <= -1.41
 R0086: - C0089 + C0090 - 4 C0468 <= -1.32
 R0087: - C0090 + C0091 - 4 C0430 <= -2.44
 R0088: - C0091 + C0092 - 4 C0449 <= -1.2
 R0089: - C0092 + C0093 - 4 C0431 <= -1.56
 R0090: - C0093 + C0094 - 4 C0446 <= -2.06
 R0091: - C0095 + C0096 <= 2.75
 R0092: - C0096 + C0097 - 4 C0438 <= -1.45
 R0093: - C0097 + C0098 <= 1.31
 R0094: - C0098 + C0099 - 4 C0455 <= -2.96
 R0095: - C0099 + C0100 - 4 C0400 <= -2.79
 R0096: - C0100 + C0101 - 4 C0453 <= -1.19
 R0097: - C0101 + C0102 - 4 C0389 <= -1.81
 R0098: - C0102 + C0103 - 4 C0396 <= -1.08
 R0099: - C0103 + C0104 - 4 C0408 <= -1.45
 R0100: - C0104 + C0105 - 4 C0451 <= -1.73
 R0101: - C0105 + C0106 - 4 C0458 <= -1.78
 R0102: - C0106 + C0107 - 4 C0472 <= -2.22
 R0103: - C0107 + C0108 - 4 C0435 <= -1.78
 R0104: - C0108 + C0109 - 4 C0430 <= -1.32
 R0105: - C0109 + C0110 - 4 C0468 <= -2.32
 R0106: - C0110 + C0111 <= 2
 R0107: - C0111 + C0112 - 4 C0470 <= -1.65
 R0108: - C0112 + C0113 - 4 C0460 <= -2.83
 R0109: - C0113 + C0114 - 4 C0469 <= -1.62
 R0110: - C0115 + C0116 <= 1.78
 R0111: - C0116 + C0117 - 4 C0442 <= -1.09
 R0112: - C0117 + C0118 - 4 C0454 <= -2.61
 R0113: - C0118 + C0119 - 4 C0444 <= -2.54
 R0114: - C0119 + C0120 - 4 C0414 <= -2.78
 R0115: - C0120 + C0121 <= 1.56
 R0116: - C0121 + C0122 - 4 C0448 <= -1.78
 R0117: - C0122 + C0123 - 4 C0455 <= -1.66
 R0118: - C0123 + C0124 - 4 C0433 <= -2.01
 R0119: - C0124 + C0125 - 4 C0447 <= -2.52
 R0120: - C0125 + C0126 - 4 C0428 <= -2.77
 R0121: - C0126 + C0127 - 4 C0438 <= -1.16
 R0122: - C0127 + C0128 - 4 C0470 <= -1.53
 R0123: - C0128 + C0129 - 4 C0423 <= -1.12
 R0124: - C0129 + C0130 - 4 C0461 <= -2.1
 R0125: - C0130 + C0131 - 4 C0434 <= -2.87
 R0126: - C0131 + C0132 <= 2.03
 R0127: - C0132 + C0133 - 4 C0398 <= -1.45
 R0128: - C0133 + C0134 - 4 C0435 <= -2.43
 R0129: - C0134 + C0135 - 4 C0429 <= -2.8
 R0130: - C0135 + C0136 - 4 C0412 <= -2.15
 R0131: - C0136 + C0137 - 4 C0465 <= -1.2
 R0132: - C0138 + C0139 <= 1.45
 R0133: - C0139 + C0140 - 4 C0431 <= -1.03
 R0134: - C0140 + C0141 - 4 C0452 <= -1.72
 R0135: - C0141 + C0142 - 4 C0436 <= -2.29
 R0136: - C0142 + C0143 - 4 C0440 <= -1.27
 R0137: - C0143 + C0144 - 4 C0470 <= -1.69
 R0138: - C0144 + C0145 - 4 C0451 <= -2.62
 R0139: - C0145 + C0146 - 4 C0409 <= -1.67
 R0140: - C0146 + C0147 - 4 C0471 <= -1.02
 R0141: - C0147 + C0148 - 4 C0414 <= -2.74
 R0142: - C0148 + C0149 - 4 C0413 <= -1.18
 R0143: - C0149 + C0150 - 4 C0420 <= -2.27
 R0144: - C0150 + C0151 - 4 C0426 <= -2.31
 R0145: - C0151 + C0152 - 4 C0443 <= -1.11
 R0146: - C0152 + C0153 - 4 C0444 <= -1.23
 R0147: - C0153 + C0154 - 4 C0456 <= -1.48
 R0148: - C0154 + C0155 - 4 C0468 <= -1.91
 R0149: - C0156 + C0157 <= 1.35
 R0150: - C0157 + C0158 - 4 C0472 <= -1.07
 R0151: - C0158 + C0159 - 4 C0464 <= -1.62
 R0152: - C0159 + C0160 - 4 C0471 <= -2.63
 R0153: - C0160 + C0161 - 4 C0468 <= -1.9
 R0154: - C0161 + C0162 - 4 C0426 <= -2.06
 R0155: - C0162 + C0163 - 4 C0467 <= -1.83
 R0156: - C0163 + C0164 - 4 C0401 <= -1.5
 R0157: - C0164 + C0165 <= 1.78
 R0158: - C0165 + C0166 <= 2.54
 R0159: - C0166 + C0167 - 4 C0465 <= -2.77
 R0160: - C0167 + C0168 - 4 C0417 <= -1.23
 R0161: - C0168 + C0169 <= 2.39
 R0162: - C0169 + C0170 <= 1.47
 R0163: - C0170 + C0171 - 4 C0451 <= -2.3
 R0164: - C0171 + C0172 - 4 C0412 <= -1.55
 R0165: - C0172 + C0173 - 4 C0423 <= -2
 R0166: - C0173 + C0174 - 4 C0425 <= -2.11
 R0167: - C0175 + C0176 - 4 C0396 <= -2.38
 R0168: - C0176 + C0177 - 4 C0402 <= -1.5
 R0169: - C0177 + C0178 - 4 C0462 <= -2.68
 R0170: - C0178 + C0179 - 4 C0407 <= -2.62
 R0171: - C0179 + C0180 - 4 C0456 <= -1.19
 R0172: - C0180 + C0181 - 4 C0416 <= -2.54
 R0173: - C0181 + C0182 - 4 C0420 <= -1.97
 R0174: - C0182 + C0183 - 4 C0395 <= -1.64
 R0175: - C0183 + C0184 - 4 C0406 <= -1.35
 R0176: - C0184 + C0185 <= 2.78
 R0177: - C0185 + C0186 - 4 C0412 <= -1.6
 R0178: - C0186 + C0187 <= 1.66
 R0179: - C0187 + C0188 <= 1.54
 R0180: - C0017 + C0206 <= 0
 R0181: - C0038 + C0228 <= 0
 R0182: - C0055 + C0246 <= 0
 R0183: - C0077 + C0269 <= 0
 R0184: - C0094 + C0287 <= 0
 R0185: - C0114 + C0308 <= 0
 R0186: - C0137 + C0332 <= 0
 R0187: - C0155 + C0351 <= 0
 R0188: - C0174 + C0371 <= 0
 R0189: - C0188 + C0386 <= 0
 R0190: C0189 - C0190 <= 1.46
 R0191: C0190 - C0191 <= 1.61
 R0192: C0191 - C0192 - 4 C0431 <= -2.87
 R0193: C0192 - C0193 - 4 C0447 <= -2.51
 R0194: C0193 - C0194 - 4 C0421 <= -1.84
 R0195: C0194 - C0195 - 4 C0433 <= -1.32
 R0196: C0195 - C0196 - 4 C0410 <= -2.5
 R0197: C0196 - C0197 - 4 C0430 <= -2.44
 R0198: C0197 - C0198 - 4 C0440 <= -1.38
 R0199: C0198 - C0199 - 4 C0432 <= -2.83
 R0200: C0199 - C0200 - 4 C0442 <= -2.08
 R0201: C0200 - C0201 - 4 C0471 <= -2.08
 R0202: C0201 - C0202 - 4 C0448 <= -2.13
 R0203: C0202 - C0203 - 4 C0451 <= -2.04
 R0204: C0203 - C0204 - 4 C0454 <= -1.89
 R0205: C0204 - C0205 - 4 C0406 <= -2.37
 R0206: C0205 - C0206 - 4 C0465 <= -1.38
 R0207: C0207 - C0208 - 4 C0459 <= -1.28
 R0208: C0208 - C0209 - 4 C0433 <= -2.4
 R0209: C0209 - C0210 - 4 C0395 <= -1.68
 R0210: C0210 - C0211 - 4 C0421 <= -1.41
 R0211: C0211 - C0212 - 4 C0423 <= -2.48
 R0212: C0212 - C0213 - 4 C0388 <= -1.85
 R0213: C0213 - C0214 - 4 C0472 <= -1.19
 R0214: C0214 - C0215 - 4 C0431 <= -2.38
 R0215: C0215 - C0216 - 4 C0452 <= -1.03
 R0216: C0216 - C0217 - 4 C0444 <= -2.16
 R0217: C0217 - C0218 - 4 C0462 <= -2.95
 R0218: C0218 - C0219 - 4 C0436 <= -2.99
 R0219: C0219 - C0220 <= 2.05
 R0220: C0220 - C0221 - 4 C0432 <= -2.18
 R0221: C0221 - C0222 <= 2.89
 R0222: C0222 - C0223 - 4 C0439 <= -2.42
 R0223: C0223 - C0224 <= 1.15
 R0224: C0224 - C0225 - 4 C0418 <= -1.47
 R0225: C0225 - C0226 <= 1.59
 R0226: C0226 - C0227 - 4 C0435 <= -2.56
 R0227: C0227 - C0228 - 4 C0396 <= -2.76
 R0228: C0229 - C0230 <= 1.49
 R0229: C0230 - C0231 - 4 C0395 <= -2.33
 R0230: C0231 - C0232 - 4 C0434 <= -1.27
 R0231: C0232 - C0233 - 4 C0446 <= -1.79
 R0232: C0233 - C0234 - 4 C0413 <= -1.64
 R0233: C0234 - C0235 - 4 C0449 <= -1.46
 R0234: C0235 - C0236 - 4 C0461 <= -2.37
 R0235: C0236 - C0237 - 4 C0411 <= -2.49
 R0236: C0237 - C0238 - 4 C0454 <= -1.01
 R0237: C0238 - C0239 - 4 C0427 <= -1.79
 R0238: C0239 - C0240 - 4 C0389 <= -2.75
 R0239: C0240 - C0241 - 4 C0444 <= -2.48
 R0240: C0241 - C0242 - 4 C0388 <= -2.21
 R0241: C0242 - C0243 - 4 C0470 <= -2.44
 R0242: C0243 - C0244 - 4 C0458 <= -2.96
 R0243: C0244 - C0245 - 4 C0420 <= -2.31
 R0244: C0245 - C0246 - 4 C0436 <= -1.51
 R0245: C0247 - C0248 - 4 C0411 <= -1.32
 R0246: C0248 - C0249 <= 2.74
 R0247: C0249 - C0250 - 4 C0397 <= -1.18
 R0248: C0250 - C0251 <= 1.73
 R0249: C0251 - C0252 - 4 C0398 <= -1.11
 R0250: C0252 - C0253 <= 1.44
 R0251: C0253 - C0254 - 4 C0456 <= -2.51
 R0252: C0254 - C0255 - 4 C0414 <= -2.77
 R0253: C0255 - C0256 - 4 C0392 <= -1.6
 R0254: C0256 - C0257 - 4 C0419 <= -2.42
 R0255: C0257 - C0258 - 4 C0403 <= -1.95
 R0256: C0258 - C0259 - 4 C0405 <= -2.18
 R0257: C0259 - C0260 <= 1.42
 R0258: C0260 - C0261 - 4 C0422 <= -2.65
 R0259: C0261 - C0262 - 4 C0418 <= -2.67
 R0260: C0262 - C0263 - 4 C0461 <= -2.96
 R0261: C0263 - C0264 - 4 C0430 <= -1.15
 R0262: C0264 - C0265 <= 2.92
 R0263: C0265 - C0266 - 4 C0428 <= -2.13
 R0264: C0266 - C0267 - 4 C0466 <= -2.27
 R0265: C0267 - C0268 - 4 C0464 <= -1.31
 R0266: C0268 - C0269 - 4 C0408 <= -2.75
 R0267: C0270 - C0271 <= 2.23
 R0268: C0271 - C0272 - 4 C0460 <= -1.64
 R0269: C0272 - C0273 - 4 C0401 <= -2.37
 R0270: C0273 - C0274 - 4 C0457 <= -1.02
 R0271: C0274 - C0275 - 4 C0400 <= -1.43
 R0272: C0275 - C0276 - 4 C0388 <= -2.07
 R0273: C0276 - C0277 - 4 C0414 <= -2.12
 R0274: C0277 - C0278 <= 1.44
 R0275: C0278 - C0279 - 4 C0415 <= -1.87
 R0276: C0279 - C0280 - 4 C0397 <= -2.32
 R0277: C0280 - C0281 - 4 C0398 <= -1.74
 R0278: C0281 - C0282 - 4 C0468 <= -1.41
 R0279: C0282 - C0283 - 4 C0430 <= -1.32
 R0280: C0283 - C0284 - 4 C0449 <= -2.44
 R0281: C0284 - C0285 - 4 C0431 <= -1.2
 R0282: C0285 - C0286 - 4 C0446 <= -1.56
 R0283: C0286 - C0287 - 4 C0420 <= -2.06
 R0284: C0288 - C0289 <= 1.29
 R0285: C0289 - C0290 - 4 C0438 <= -1.25
 R0286: C0290 - C0291 <= 2.55
 R0287: C0291 - C0292 - 4 C0455 <= -2.69
 R0288: C0292 - C0293 - 4 C0400 <= -2.96
 R0289: C0293 - C0294 - 4 C0453 <= -2.79
 R0290: C0294 - C0295 - 4 C0389 <= -1.19
 R0291: C0295 - C0296 - 4 C0396 <= -1.81
 R0292: C0296 - C0297 - 4 C0408 <= -1.08
 R0293: C0297 - C0298 - 4 C0451 <= -1.45
 R0294: C0298 - C0299 - 4 C0458 <= -1.73
 R0295: C0299 - C0300 - 4 C0472 <= -1.78
 R0296: C0300 - C0301 - 4 C0435 <= -2.22
 R0297: C0301 - C0302 - 4 C0430 <= -1.78
 R0298: C0302 - C0303 - 4 C0468 <= -1.32
 R0299: C0303 - C0304 <= 1.68
 R0300: C0304 - C0305 - 4 C0470 <= -2
 R0301: C0305 - C0306 - 4 C0460 <= -1.65
 R0302: C0306 - C0307 - 4 C0469 <= -2.83
 R0303: C0307 - C0308 - 4 C0423 <= -1.62
 R0304: C0309 - C0310 <= 2.16
 R0305: C0310 - C0311 - 4 C0442 <= -2.22
 R0306: C0311 - C0312 - 4 C0454 <= -1.09
 R0307: C0312 - C0313 - 4 C0444 <= -2.61
 R0308: C0313 - C0314 - 4 C0414 <= -2.54
 R0309: C0314 - C0315 <= 1.22
 R0310: C0315 - C0316 - 4 C0448 <= -2.44
 R0311: C0316 - C0317 - 4 C0455 <= -1.78
 R0312: C0317 - C0318 - 4 C0433 <= -1.66
 R0313: C0318 - C0319 - 4 C0447 <= -2.01
 R0314: C0319 - C0320 - 4 C0428 <= -2.52
 R0315: C0320 - C0321 - 4 C0438 <= -2.77
 R0316: C0321 - C0322 - 4 C0470 <= -1.16
 R0317: C0322 - C0323 - 4 C0423 <= -1.53
 R0318: C0323 - C0324 - 4 C0461 <= -1.12
 R0319: C0324 - C0325 - 4 C0434 <= -2.1
 R0320: C0325 - C0326 <= 1.13
 R0321: C0326 - C0327 - 4 C0398 <= -1.97
 R0322: C0327 - C0328 - 4 C0435 <= -1.45
 R0323: C0328 - C0329 - 4 C0429 <= -2.43
 R0324: C0329 - C0330 - 4 C0412 <= -2.8
 R0325: C0330 - C0331 - 4 C0465 <= -2.15
 R0326: C0331 - C0332 <= 2.8
 R0327: C0333 - C0334 <= 2.43
 R0328: C0334 - C0335 - 4 C0431 <= -2.55
 R0329: C0335 - C0336 - 4 C0452 <= -1.03
 R0330: C0336 - C0337 - 4 C0436 <= -1.72
 R0331: C0337 - C0338 - 4 C0440 <= -2.29
 R0332: C0338 - C0339 - 4 C0470 <= -1.27
 R0333: C0339 - C0340 - 4 C0451 <= -1.69
 R0334: C0340 - C0341 - 4 C0409 <= -2.62
 R0335: C0341 - C0342 - 4 C0471 <= -1.67
 R0336: C0342 - C0343 - 4 C0414 <= -1.02
 R0337: C0343 - C0344 - 4 C0413 <= -2.74
 R0338: C0344 - C0345 - 4 C0420 <= -1.18
 R0339: C0345 - C0346 - 4 C0426 <= -2.27
 R0340: C0346 - C0347 - 4 C0443 <= -2.31
 R0341: C0347 - C0348 - 4 C0444 <= -1.11
 R0342: C0348 - C0349 - 4 C0456 <= -1.23
 R0343: C0349 - C0350 - 4 C0468 <= -1.48
 R0344: C0350 - C0351 - 4 C0407 <= -1.91
 R0345: C0352 - C0353 <= 1.68
 R0346: C0353 - C0354 - 4 C0472 <= -2.65
 R0347: C0354 - C0355 - 4 C0464 <= -1.07
 R0348: C0355 - C0356 - 4 C0471 <= -1.62
 R0349: C0356 - C0357 - 4 C0468 <= -2.63
 R0350: C0357 - C0358 - 4 C0426 <= -1.9
 R0351: C0358 - C0359 - 4 C0467 <= -2.06
 R0352: C0359 - C0360 - 4 C0401 <= -1.83
 R0353: C0360 - C0361 <= 2.5
 R0354: C0361 - C0362 <= 1.78
 R0355: C0362 - C0363 - 4 C0465 <= -1.46
 R0356: C0363 - C0364 - 4 C0417 <= -2.77
 R0357: C0364 - C0365 <= 2.77
 R0358: C0365 - C0366 <= 2.39
 R0359: C0366 - C0367 - 4 C0451 <= -2.53
 R0360: C0367 - C0368 - 4 C0412 <= -2.3
 R0361: C0368 - C0369 - 4 C0423 <= -1.55
 R0362: C0369 - C0370 - 4 C0425 <= -2
 R0363: C0370 - C0371 - 4 C0436 <= -2.11
 R0364: C0372 - C0373 - 4 C0396 <= -1.41
 R0365: C0373 - C0374 - 4 C0402 <= -2.38
 R0366: C0374 - C0375 - 4 C0462 <= -1.5
 R0367: C0375 - C0376 - 4 C0407 <= -2.68
 R0368: C0376 - C0377 - 4 C0456 <= -2.62
 R0369: C0377 - C0378 - 4 C0416 <= -1.19
 R0370: C0378 - C0379 - 4 C0420 <= -2.54
 R0371: C0379 - C0380 - 4 C0395 <= -1.97
 R0372: C0380 - C0381 - 4 C0406 <= -1.64
 R0373: C0381 - C0382 <= 2.65
 R0374: C0382 - C0383 - 4 C0412 <= -1.22
 R0375: C0383 - C0384 <= 2.4
 R0376: C0384 - C0385 <= 1.66
 R0377: C0385 - C0386 - 4 C0468 <= -2.46
Bounds
 0 <= C0001 <= 1.46
 0 <= C0002 <= 11.61
 0 <= C0003 <= 11.13
 0 <= C0004 <= 11.49
 0 <= C0005 <= 12.16
 0 <= C0006 <= 12.68
 0 <= C0007 <= 11.5
 0 <= C0008 <= 11.56
 0 <= C0009 <= 12.62
 0 <= C0010 <= 11.17
 0 <= C0011 <= 11.92
 0 <= C0012 <= 11.92
 0 <= C0013 <= 11.87
 0 <= C0014 <= 11.96
 0 <= C0015 <= 12.11
 0 <= C0016 <= 11.63
 0 <= C0017 <= 12.62
 0 <= C0018 <= 2.72
 0 <= C0019 <= 11.6
 0 <= C0020 <= 12.32
 0 <= C0021 <= 12.59
 0 <= C0022 <= 11.52
 0 <= C0023 <= 12.15
 0 <= C0024 <= 12.81
 0 <= C0025 <= 11.62
 0 <= C0026 <= 12.97
 0 <= C0027 <= 11.84
 0 <= C0028 <= 11.05
 0 <= C0029 <= 11.01
 0 <= C0030 <= 12.05
 0 <= C0031 <= 11.82
 0 <= C0032 <= 12.89
 0 <= C0033 <= 11.58
 0 <= C0034 <= 11.15
 0 <= C0035 <= 12.53
 0 <= C0036 <= 11.59
 0 <= C0037 <= 11.44
 0 <= C0038 <= 11.24
 0 <= C0039 <= 1.49
 0 <= C0040 <= 11.67
 0 <= C0041 <= 12.73
 0 <= C0042 <= 12.21
 0 <= C0043 <= 12.36
 0 <= C0044 <= 12.54
 0 <= C0045 <= 11.63
 0 <= C0046 <= 11.51
 0 <= C0047 <= 12.99
 0 <= C0048 <= 12.21
 0 <= C0049 <= 11.25
 0 <= C0050 <= 11.52
 0 <= C0051 <= 11.79
 0 <= C0052 <= 11.56
 0 <= C0053 <= 11.04
 0 <= C0054 <= 11.69
 0 <= C0055 <= 12.49
 0 <= C0056 <= 2.68
 0 <= C0057 <= 12.74
 0 <= C0058 <= 12.82
 0 <= C0059 <= 11.73
 0 <= C0060 <= 12.89
 0 <= C0061 <= 11.44
 0 <= C0062 <= 11.49
 0 <= C0063 <= 11.23
 0 <= C0064 <= 12.4
 0 <= C0065 <= 11.58
 0 <= C0066 <= 12.05
 0 <= C0067 <= 11.82
 0 <= C0068 <= 11.42
 0 <= C0069 <= 11.35
 0 <= C0070 <= 11.33
 0 <= C0071 <= 11.04
 0 <= C0072 <= 12.85
 0 <= C0073 <= 12.92
 0 <= C0074 <= 11.87
 0 <= C0075 <= 11.73
 0 <= C0076 <= 12.69
 0 <= C0077 <= 11.25
 0 <= C0078 <= 2.23
 0 <= C0079 <= 12.36
 0 <= C0080 <= 11.63
 0 <= C0081 <= 12.98
 0 <= C0082 <= 12.57
 0 <= C0083 <= 11.93
 0 <= C0084 <= 11.88
 0 <= C0085 <= 11.44
 0 <= C0086 <= 12.13
 0 <= C0087 <= 11.68
 0 <= C0088 <= 12.26
 0 <= C0089 <= 12.59
 0 <= C0090 <= 12.68
 0 <= C0091 <= 11.56
 0 <= C0092 <= 12.8
 0 <= C0093 <= 12.44
 0 <= C0094 <= 11.94
 0 <= C0095 <= 1.29
 0 <= C0096 <= 12.75
 0 <= C0097 <= 12.55
 0 <= C0098 <= 11.31
 0 <= C0099 <= 11.04
 0 <= C0100 <= 11.21
 0 <= C0101 <= 12.81
 0 <= C0102 <= 12.19
 0 <= C0103 <= 12.92
 0 <= C0104 <= 12.55
 0 <= C0105 <= 12.27
 0 <= C0106 <= 12.22
 0 <= C0107 <= 11.78
 0 <= C0108 <= 12.22
 0 <= C0109 <= 12.68
 0 <= C0110 <= 11.68
 0 <= C0111 <= 12
 0 <= C0112 <= 12.35
 0 <= C0113 <= 11.17
 0 <= C0114 <= 12.38
 0 <= C0115 <= 2.16
 0 <= C0116 <= 11.78
 0 <= C0117 <= 12.91
 0 <= C0118 <= 11.39
 0 <= C0119 <= 11.46
 0 <= C0120 <= 11.22
 0 <= C0121 <= 11.56
 0 <= C0122 <= 12.22
 0 <= C0123 <= 12.34
 0 <= C0124 <= 11.99
 0 <= C0125 <= 11.48
 0 <= C0126 <= 11.23
 0 <= C0127 <= 12.84
 0 <= C0128 <= 12.47
 0 <= C0129 <= 12.88
 0 <= C0130 <= 11.9
 0 <= C0131 <= 11.13
 0 <= C0132 <= 12.03
 0 <= C0133 <= 12.55
 0 <= C0134 <= 11.57
 0 <= C0135 <= 11.2
 0 <= C0136 <= 11.85
 0 <= C0137 <= 12.8
 0 <= C0138 <= 2.43
 0 <= C0139 <= 11.45
 0 <= C0140 <= 12.97
 0 <= C0141 <= 12.28
 0 <= C0142 <= 11.71
 0 <= C0143 <= 12.73
 0 <= C0144 <= 12.31
 0 <= C0145 <= 11.38
 0 <= C0146 <= 12.33
 0 <= C0147 <= 12.98
 0 <= C0148 <= 11.26
 0 <= C0149 <= 12.82
 0 <= C0150 <= 11.73
 0 <= C0151 <= 11.69
 0 <= C0152 <= 12.89
 0 <= C0153 <= 12.77
 0 <= C0154 <= 12.52
 0 <= C0155 <= 12.09
 0 <= C0156 <= 1.68
 0 <= C0157 <= 11.35
 0 <= C0158 <= 12.93
 0 <= C0159 <= 12.38
 0 <= C0160 <= 11.37
 0 <= C0161 <= 12.1
 0 <= C0162 <= 11.94
 0 <= C0163 <= 12.17
 0 <= C0164 <= 12.5
 0 <= C0165 <= 11.78
 0 <= C0166 <= 12.54
 0 <= C0167 <= 11.23
 0 <= C0168 <= 12.77
 0 <= C0169 <= 12.39
 0 <= C0170 <= 11.47
 0 <= C0171 <= 11.7
 0 <= C0172 <= 12.45
 0 <= C0173 <= 12
 0 <= C0174 <= 11.89
 0 <= C0175 <= 2.59
 0 <= C0176 <= 11.62
 0 <= C0177 <= 12.5
 0 <= C0178 <= 11.32
 0 <= C0179 <= 11.38
 0 <= C0180 <= 12.81
 0 <= C0181 <= 11.46
 0 <= C0182 <= 12.03
 0 <= C0183 <= 12.36
 0 <= C0184 <= 12.65
 0 <= C0185 <= 12.78
 0 <= C0186 <= 12.4
 0 <= C0187 <= 11.66
 0 <= C0188 <= 11.54
 0 <= C0189 <= 11.46
 0 <= C0190 <= 11.61
 0 <= C0191 <= 11.13
 0 <= C0192 <= 11.49
 0 <= C0193 <= 12.16
 0 <= C0194 <= 12.68
 0 <= C0195 <= 11.5
 0 <= C0196 <= 11.56
 0 <= C0197 <= 12.62
 0 <= C0198 <= 11.17
 0 <= C0199 <= 11.92
 0 <= C0200 <= 11.92
 0 <= C0201 <= 11.87
 0 <= C0202 <= 11.96
 0 <= C0203 <= 12.11
 0 <= C0204 <= 11.63
 0 <= C0205 <= 12.62
 0 <= C0206 <= 14
 0 <= C0207 <= 12.72
 0 <= C0208 <= 11.6
 0 <= C0209 <= 12.32
 0 <= C0210 <= 12.59
 0 <= C0211 <= 11.52
 0 <= C0212 <= 12.15
 0 <= C0213 <= 12.81
 0 <= C0214 <= 11.62
 0 <= C0215 <= 12.97
 0 <= C0216 <= 11.84
 0 <= C0217 <= 11.05
 0 <= C0218 <= 11.01
 0 <= C0219 <= 12.05
 0 <= C0220 <= 11.82
 0 <= C0221 <= 12.89
 0 <= C0222 <= 11.58
 0 <= C0223 <= 11.15
 0 <= C0224 <= 12.53
 0 <= C0225 <= 11.59
 0 <= C0226 <= 11.44
 0 <= C0227 <= 11.24
 0 <= C0228 <= 14
 0 <= C0229 <= 11.49
 0 <= C0230 <= 11.67
 0 <= C0231 <= 12.73
 0 <= C0232 <= 12.21
 0 <= C0233 <= 12.36
 0 <= C0234 <= 12.54
 0 <= C0235 <= 11.63
 0 <= C0236 <= 11.51
 0 <= C0237 <= 12.99
 0 <= C0238 <= 12.21
 0 <= C0239 <= 11.25
 0 <= C0240 <= 11.52
 0 <= C0241 <= 11.79
 0 <= C0242 <= 11.56
 0 <= C0243 <= 11.04
 0 <= C0244 <= 11.69
 0 <= C0245 <= 12.49
 0 <= C0246 <= 14
 0 <= C0247 <= 12.68
 0 <= C0248 <= 12.74
 0 <= C0249 <= 12.82
 0 <= C0250 <= 11.73
 0 <= C0251 <= 12.89
 0 <= C0252 <= 11.44
 0 <= C0253 <= 11.49
 0 <= C0254 <= 11.23
 0 <= C0255 <= 12.4
 0 <= C0256 <= 11.58
 0 <= C0257 <= 12.05
 0 <= C0258 <= 11.82
 0 <= C0259 <= 11.42
 0 <= C0260 <= 11.35
 0 <= C0261 <= 11.33
 0 <= C0262 <= 11.04
 0 <= C0263 <= 12.85
 0 <= C0264 <= 12.92
 0 <= C0265 <= 11.87
 0 <= C0266 <= 11.73
 0 <= C0267 <= 12.69
 0 <= C0268 <= 11.25
 0 <= C0269 <= 14
 0 <= C0270 <= 12.23
 0 <= C0271 <= 12.36
 0 <= C0272 <= 11.63
 0 <= C0273 <= 12.98
 0 <= C0274 <= 12.57
 0 <= C0275 <= 11.93
 0 <= C0276 <= 11.88
 0 <= C0277 <= 11.44
 0 <= C0278 <= 12.13
 0 <= C0279 <= 11.68
 0 <= C0280 <= 12.26
 0 <= C0281 <= 12.59
 0 <= C0282 <= 12.68
 0 <= C0283 <= 11.56
 0 <= C0284 <= 12.8
 0 <= C0285 <= 12.44
 0 <= C0286 <= 11.94
 0 <= C0287 <= 14
 0 <= C0288 <= 11.29
 0 <= C0289 <= 12.75
 0 <= C0290 <= 12.55
 0 <= C0291 <= 11.31
 0 <= C0292 <= 11.04
 0 <= C0293 <= 11.21
 0 <= C0294 <= 12.81
 0 <= C0295 <= 12.19
 0 <= C0296 <= 12.92
 0 <= C0297 <= 12.55
 0 <= C0298 <= 12.27
 0 <= C0299 <= 12.22
 0 <= C0300 <= 11.78
 0 <= C0301 <= 12.22
 0 <= C0302 <= 12.68
 0 <= C0303 <= 11.68
 0 <= C0304 <= 12
 0 <= C0305 <= 12.35
 0 <= C0306 <= 11.17
 0 <= C0307 <= 12.38
 0 <= C0308 <= 14
 0 <= C0309 <= 12.16
 0 <= C0310 <= 11.78
 0 <= C0311 <= 12.91
 0 <= C0312 <= 11.39
 0 <= C0313 <= 11.46
 0 <= C0314 <= 11.22
 0 <= C0315 <= 11.56
 0 <= C0316 <= 12.22
 0 <= C0317 <= 12.34
 0 <= C0318 <= 11.99
 0 <= C0319 <= 11.48
 0 <= C0320 <= 11.23
 0 <= C0321 <= 12.84
 0 <= C0322 <= 12.47
 0 <= C0323 <= 12.88
 0 <= C0324 <= 11.9
 0 <= C0325 <= 11.13
 0 <= C0326 <= 12.03
 0 <= C0327 <= 12.55
 0 <= C0328 <= 11.57
 0 <= C0329 <= 11.2
 0 <= C0330 <= 11.85
 0 <= C0331 <= 12.8
 0 <= C0332 <= 14
 0 <= C0333 <= 12.43
 0 <= C0334 <= 11.45
 0 <= C0335 <= 12.97
 0 <= C0336 <= 12.28
 0 <= C0337 <= 11.71
 0 <= C0338 <= 12.73
 0 <= C0339 <= 12.31
 0 <= C0340 <= 11.38
 0 <= C0341 <= 12.33
 0 <= C0342 <= 12.98
 0 <= C0343 <= 11.26
 0 <= C0344 <= 12.82
 0 <= C0345 <= 11.73
 0 <= C0346 <= 11.69
 0 <= C0347 <= 12.89
 0 <= C0348 <= 12.77
 0 <= C0349 <= 12.52
 0 <= C0350 <= 12.09
 0 <= C0351 <= 14
 0 <= C0352 <= 11.68
 0 <= C0353 <= 11.35
 0 <= C0354 <= 12.93
 0 <= C0355 <= 12.38
 0 <= C0356 <= 11.37
 0 <= C0357 <= 12.1
 0 <= C0358 <= 11.94
 0 <= C0359 <= 12.17
 0 <= C0360 <= 12.5
 0 <= C0361 <= 11.78
 0 <= C0362 <= 12.54
 0 <= C0363 <= 11.23
 0 <= C0364 <= 12.77
 0 <= C0365 <= 12.39
 0 <= C0366 <= 11.47
 0 <= C0367 <= 11.7
 0 <= C0368 <= 12.45
 0 <= C0369 <= 12
 0 <= C0370 <= 11.89
 0 <= C0371 <= 14
 0 <= C0372 <= 12.59
 0 <= C0373 <= 11.62
 0 <= C0374 <= 12.5
 0 <= C0375 <= 11.32
 0 <= C0376 <= 11.38
 0 <= C0377 <= 12.81
 0 <= C0378 <= 11.46
 0 <= C0379 <= 12.03
 0 <= C0380 <= 12.36
 0 <= C0381 <= 12.65
 0 <= C0382 <= 12.78
 0 <= C0383 <= 12.4
 0 <= C0384 <= 11.66
 0 <= C0385 <= 11.54
 0 <= C0386 <= 14
      C0387 Free
 0 <= C0388 <= 1
 0 <= C0389 <= 1
 0 <= C0390 <= 1
 0 <= C0391 <= 1
 0 <= C0392 <= 1
 0 <= C0393 <= 1
 0 <= C0394 <= 1
 0 <= C0395 <= 1
 0 <= C0396 <= 1
 0 <= C0397 <= 1
 0 <= C0398 <= 1
 0 <= C0399 <= 1
 0 <= C0400 <= 1
 0 <= C0401 <= 1
 0 <= C0402 <= 1
 0 <= C0403 <= 1
 0 <= C0404 <= 1
 0 <= C0405 <= 1
 0 <= C0406 <= 1
 0 <= C0407 <= 1
 0 <= C0408 <= 1
 0 <= C0409 <= 1
 0 <= C0410 <= 1
 0 <= C0411 <= 1
 0 <= C0412 <= 1
 0 <= C0413 <= 1
 0 <= C0414 <= 1
 0 <= C0415 <= 1
 0 <= C0416 <= 1
 0 <= C0417 <= 1
 0 <= C0418 <= 1
 0 <= C0419 <= 1
 0 <= C0420 <= 1
 0 <= C0421 <= 1
 0 <= C0422 <= 1
 0 <= C0423 <= 1
 0 <= C0424 <= 1
 0 <= C0425 <= 1
 0 <= C0426 <= 1
 0 <= C0427 <= 1
 0 <= C0428 <= 1
 0 <= C0429 <= 1
 0 <= C0430 <= 1
 0 <= C0431 <= 1
 0 <= C0432 <= 1
 0 <= C0433 <= 1
 0 <= C0434 <= 1
 0 <= C0435 <= 1
 0 <= C0436 <= 1
 0 <= C0437 <= 1
 0 <= C0438 <= 1
 0 <= C0439 <= 1
 0 <= C0440 <= 1
 0 <= C0441 <= 1
 0 <= C0442 <= 1
 0 <= C0443 <= 1
 0 <= C0444 <= 1
 0 <= C0445 <= 1
 0 <= C0446 <= 1
 0 <= C0447 <= 1
 0 <= C0448 <= 1
 0 <= C0449 <= 1
 0 <= C0450 <= 1
 0 <= C0451 <= 1
 0 <= C0452 <= 1
 0 <= C0453 <= 1
 0 <= C0454 <= 1
 0 <= C0455 <= 1
 0 <= C0456 <= 1
 0 <= C0457 <= 1
 0 <= C0458 <= 1
 0 <= C0459 <= 1
 0 <= C0460 <= 1
 0 <= C0461 <= 1
 0 <= C0462 <= 1
 0 <= C0463 <= 1
 0 <= C0464 <= 1
 0 <= C0465 <= 1
 0 <= C0466 <= 1
 0 <= C0467 <= 1
 0 <= C0468 <= 1
 0 <= C0469 <= 1
 0 <= C0470 <= 1
 0 <= C0471 <= 1
 0 <= C0472 <= 1
Binaries
 C0388  C0389  C0390  C0391  C0392  C0393  C0394  C0395  C0396  C0397  C0398 
 C0399  C0400  C0401  C0402  C0403  C0404  C0405  C0406  C0407  C0408  C0409 
 C0410  C0411  C0412  C0413  C0414  C0415  C0416  C0417  C0418  C0419  C0420 
 C0421  C0422  C0423  C0424  C0425  C0426  C0427  C0428  C0429  C0430  C0431 
 C0432  C0433  C0434  C0435  C0436  C0437  C0438  C0439  C0440  C0441  C0442 
 C0443  C0444  C0445  C0446  C0447  C0448  C0449  C0450  C0451  C0452  C0453 
 C0454  C0455  C0456  C0457  C0458  C0459  C0460  C0461  C0462  C0463  C0464 
 C0465  C0466  C0467  C0468  C0469  C0470  C0471  C0472 
End
